param set_len = 26;
param target_sum = 207504177;
param values := [0] 14867242 [1] 18775130 [2] 13013157 [3] 12137767 [4] 13899578 [5] 29006386 [6] 2887745 [7] 18902323 [8] 14182158 [9] 33355003 [10] 549457 [11] 26498399 [12] 19593534 [13] 30226933 [14] 31461985 [15] 6125111 [16] 7023074 [17] 24605009 [18] 1272680 [19] 1394998 [20] 29706790 [21] 1124894 [22] 17695935 [23] 16815588 [24] 13414004 [25] 18564737 ;
